BEGIN IONS
PEPMASS=378.16
CHARGE=1
MSLEVEL=2
SOURCE_INSTRUMENT=DI-ESI-qTof
FILENAME=aby_B.mzXML
SEQ=*..*
IONMODE=Positive
ORGANISM=GNPS-LIBRARY
NAME=Abyssomicin B M+H
PI=Dorrestein
DATACOLLECTOR=X Liu
SMILES=C[C@@H]1C[C@@]2(O3)C(C4=NO[C@@]([C@@H](C)C5)(O)C4)[C@@H](O)[C@@H]1OC2=C(C([C@@H]5C)=O)C3=O
INCHI=N/A
INCHIAUX=N/A
PUBMED=24025162
SUBMITUSER=mwang87
LIBRARYQUALITY=1
SPECTRUMID=CCMSLIB00000006864
SCANS=1
108.025902  357.789825
109.121971	573.322998
109.993286	265.247528
111.018509	987.790222
112.937851	355.175598
113.968689	93.165802
114.994293	1422.883301
117.102386	831.198364
118.052933	94.125015
119.071945	849.744324
120.041527	1951.735596
121.069633	387.940125
121.940895	1132.508301
123.203751	1099.547974
124.065559	4420.283203
125.015854	1064.499512
126.090836	291.076843
130.097183	2264.391602
131.038422	3664.488281
132.142838	903.954956
132.885117	98.406769
134.0578	9579.661133
135.057098	8036.175781
136.07135	461.763062
137.074051	369.357788
138.084991	3626.699707
139.06546	1628.230225
141.088333	309.880463
143.870728	2995.942871
145.125946	305.650879
146.076523	17001.265625
147.121735	1639.171021
148.057205	5256.90332
149.086029	2517.813965
150.048706	4986.023926
150.917664	291.60202
151.984787	1833.177856
153.08963	795.270264
155.095764	679.630615
156.020111	620.824707
156.96167	76.106178
158.029221	11471.261719
158.988708	8659.454102
160.118912	1338.513306
161.091309	390.535431
162.083847	31748.714844
163.123093	822.13208
164.167404	3663.474609
165.098602	3048.348877
166.085388	1242.69751
167.031494	10307.222656
169.110809	229.10144
172.130447	3855.778076
174.113434	73825.898438
176.043839	44787.648438
177.057831	25362.066406
178.010468	1445.960327
179.139374	253.417221
180.041824	2813.040527
181.07019	856.559204
182.321671	745.5578
183.103729	3494.059814
184.050888	1193.435547
185.108276	5106.854004
186.127213	3135.10083
187.021896	566.412781
188.079971	5637.079102
189.212784	942.600525
190.132416	15393.631836
191.279724	352.224976
192.157379	7452.442871
192.999527	1275.13208
194.179245	3460.894043
195.098862	15586.498047
196.062195	1121.742188
197.263016	1266.300781
198.171646	1530.505249
200.116226	20251.753906
202.026154	20556.710938
203.074356	3870.587402
204.112869	14043.015625
204.984924	1087.114258
206.079941	1612.630127
207.109055	1241.509766
208.083054	6153.530273
209.423248	395.131927
210.134323	19325.496094
211.064789	7108.082031
212.171295	2233.413574
214.050446	20253.015625
215.15094	1435.914917
216.080032	2309.40332
217.248642	6727.989746
218.090561	50754.25
218.950241	1378.089233
220.109009	3642.800293
221.070404	3207.864014
222.166611	1652.374146
223.143646	1358.58374
224.118881	22958.753906
226.06485	100268.796875
227.095612	2497.388184
228.230957	2571.568604
229.225571	1561.680542
230.187729	2195.987305
231.149628	332.386566
232.220383	4018.994873
233.067535	6645.186523
234.114334	4560.511719
235.119583	1950.458252
236.125076	17959.722656
237.173538	2063.749756
238.108551	9980.505859
239.091125	3260.949951
240.080338	5046.769531
241.149414	1129.264404
242.149979	15470.587891
243.157974	1721.443237
244.209503	8432.353516
245.156052	6755.762695
246.208588	1843.016357
247.120972	2277.777832
248.179398	8008.631348
249.187637	990.43042
250.253281	3217.853027
252.143509	44975.828125
253.334885	3288.145752
254.113983	38135.558594
255.175079	27004.191406
256.133026	8931.791992
257.199829	2601.245361
258.106537	4284.376953
259.081726	229.882477
260.106476	3541.34082
260.825684	364.74292
262.033051	9691.672852
263.113678	18831.148438
264.094086	3147.507324
265.142822	1877.611572
266.138885	897.439941
266.960754	446.395386
268.080048	32027.90625
269.082367	932.790588
270.236206	19579.810547
271.385925	2251.661133
272.197449	21633.894531
273.1698	15410.458984
274.25177	5544.063965
275.179474	2300.413818
276.129517	1753.648438
277.22998	222.661163
278.130646	8725.480469
280.105316	82705.625
281.220978	2436.929932
282.140778	3909.003662
283.107117	30170.345703
284.179626	2643.000244
285.562622	1355.014648
286.172852	15919.591797
287.015259	326.932343
288.229614	31478.460938
289.165619	337.877289
290.083008	1858.535156
291.171478	19231.878906
292.23407	8678.229492
293.374359	806.254517
294.05957	2730.36499
294.915894	475.061523
296.165863	42051.0
297.634644	3852.148926
298.24408	130487.265625
299.178894	654.448914
300.149384	11534.449219
301.169128	21646.734375
302.206726	2424.610107
304.073364	236576.4375
304.674377	550.278503
306.198059	7191.26416
307.06485	977.676575
308.088989	244.598206
309.102478	27795.349609
309.701965	141.726791
310.286011	107.587463
312.245667	1480.9375
314.191681	28487.28125
316.150665	92158.140625
317.109558	235.24791
319.116119	150190.484375
320.324829	290.436707
322.19809	50601.75
324.101379	60166.398438
325.054779	1396.02478
327.209747	11223.386719
328.222168	820.391357
328.956787	145.690826
330.239319	134.598206
332.166901	236184.375
334.170349	38677.601562
335.118103	252.010895
336.355255	608.277039
337.192719	118.394142
342.156006	164844.34375
343.241089	1032.089233
345.161682	13102.671875
346.045715	187.845764
347.159241	177.338074
350.158234	10830.144531
355.369324	263.446625
360.231567	8282740.0
361.093353	8596.791992
362.955994	135.187515
368.774994	267.817932
378.147064	209.056641
398.017487	167.649887
END IONS