BEGIN IONS
PEPMASS=349.20095
CHARGE=1+
FILENAME=PMA_065444
UNPD_ID=UNPD159661
MOLECULAR_FORMULA=C20H28O5
SEQ=*..*
IONMODE=Positive
EXACTMASS=348.193674
NAME=UNPD159661
SMILES=CC1C(O)C2(O)C(C3C=C(CO)CC4=C(C=C(C)C4O)C13O)C2(C)C
INCHI=InChI=1/C20H28O5/c1-9-5-13-12(15(9)22)6-11(8-21)7-14-16-18(3,4)20(16,25)17(23)10(2)19(13,14)24/h5,7,10,14-17,21-25H,6,8H2,1-4H3/t10-,14+,15+,16-,17-,19+,20-/m1/s1
INCHIKEY=CECQLSSRZIBODZ-MFYSWCGQSA-N
SCANS=1
93.07042529 0.1721895631
95.04968984 0.2055541692
107.0496898 0.3517217264
109.0653399 0.7990951972
141.0915547 0.2428717614
147.08099 0.1983133304
163.0759046 0.2772766459
165.0915547 0.2138327979
199.1334195 0.2266414054
271.1334195 0.4467687007
273.1490695 0.453566425
289.1439842 0.603365659
291.1596342 0.8165484288
293.1752843 0.2381896901
295.1909343 0.190602914
299.1647196 1.024977611
301.1803697 0.4096806053
305.1752843 0.4530712565
307.1909343 0.1661152974
313.1803697 25.81086843
315.1596342 0.363736198
315.1596342 0.2086211951
317.1752843 0.7486469918
319.1545488 0.533269375
319.1909343 0.6334818748
321.1701989 0.5650030571
323.185849 0.5952336891
331.1909343 41.19752561
331.1909343 1.484041337
333.1701989 0.3957317926
349.201499 19.97345726
41.03912516 0.8087251542
85.06533991 0.5455379625
95.04968984 0.4479315358
107.0496898 0.4246906097
109.0653399 0.940958824
143.1072047 0.5688016668
147.08099 1.148342354
163.0759046 0.7891334095
165.0915547 0.6577399936
187.0759046 0.4533694304
259.1334195 1.706102891
261.1490695 0.5332527875
271.1334195 3.409895162
273.1490695 1.570807549
275.1283341 1.426401788
275.1647196 2.562181851
277.1439842 0.4641393593
277.1803697 0.5523075808
279.1596342 0.5249912699
289.1439842 4.086835202
291.1596342 1.504306021
293.1752843 1.909091345
299.1647196 1.990321482
301.1803697 1.585168637
313.1803697 32.71795505
315.1596342 0.8369890601
317.1752843 0.9082940397
319.1909343 1.403743522
331.1909343 26.08132998
331.1909343 0.991926901
349.201499 6.448727579
51.0234751 3.32753245
53.03912516 2.567047121
57.07042529 2.221750186
71.04968984 2.248179447
77.03912516 1.829006615
79.05477522 1.902007135
81.03403978 1.488314872
85.06533991 4.089250476
93.07042529 2.589824254
95.08607535 1.408259117
97.10172542 1.599446795
107.0496898 4.795800588
109.0653399 4.672398189
131.0496898 1.621699342
133.0653399 1.700097586
135.08099 2.638009055
147.08099 1.983689935
179.1072047 2.803534357
187.0759046 2.322809554
215.1072047 1.848992754
271.1334195 5.728535325
273.1490695 4.171313984
275.1283341 1.332100572
275.1647196 1.387125377
289.1803697 1.461952458
299.1647196 5.057171664
301.1803697 4.111853163
313.1803697 20.88182622
315.1596342 2.067643934
315.1596342 1.422236985
331.1909343 2.720590489
END IONS